NAME : random_12
COMMENT : 36 random nodes
TYPE : TSP
DIMENSION : 36
EDGE_WEIGHT_TYPE : EUC_2D
NODE_COORD_SECTION
1 -1082 754
2 -209 250
3 -26 346
4 3434 -1643
5 2422 676
6 1950 2121
7 3235 1520
8 1269 -1767
9 3617 220
10 2983 1370
11 -1311 581
12 -2042 3845
13 3546 -2239
14 -1141 -2664
15 -2131 3596
16 3127 -1767
17 1018 3945
18 -835 -2428
19 3051 1247
20 2827 -2130
21 2212 2723
22 2332 1158
23 4101 2659
24 3099 2151
25 4359 2661
26 3588 -466
27 2808 -327
28 2770 4554
29 194 1646
30 -2719 -5
31 1383 -135
32 1887 2939
33 2047 658
34 -582 117
35 2634 -1107
36 -322 2691
EOF